unknown
(model
; cardinality of BoundSet is 8
(declare-sort BoundSet 0)
; rep: @uc_BoundSet_0
; rep: @uc_BoundSet_1
; rep: @uc_BoundSet_2
; rep: @uc_BoundSet_3
; rep: @uc_BoundSet_4
; rep: @uc_BoundSet_5
; rep: @uc_BoundSet_6
; rep: @uc_BoundSet_7
; cardinality of UnboundSet is 1
(declare-sort UnboundSet 0)
(declare-fun groundTerm_9 () UnboundSet)
(define-fun HasCreptUp ((BOUND_VARIABLE_597 BoundSet)) Bool true)
(define-fun IsHighTide ((BOUND_VARIABLE_597 BoundSet)) Bool true)
(define-fun IsBriskWind ((BOUND_VARIABLE_597 BoundSet)) Bool true)
(define-fun SendsWater ((BOUND_VARIABLE_612 BoundSet) (BOUND_VARIABLE_613 BoundSet)) Bool (ite (= @uc_BoundSet_3 BOUND_VARIABLE_612) (ite (= @uc_BoundSet_5 BOUND_VARIABLE_613) true (= @uc_BoundSet_4 BOUND_VARIABLE_613)) false))
(define-fun PoursInto ((BOUND_VARIABLE_597 BoundSet)) Bool false)
)
sat
(model
; cardinality of BoundSet is 1
(declare-sort BoundSet 0)
; rep: @uc_BoundSet_0
; cardinality of UnboundSet is 1
(declare-sort UnboundSet 0)
(declare-fun groundTerm_12 () UnboundSet)
(define-fun HasCreptUp ((BOUND_VARIABLE_660 BoundSet)) Bool true)
(define-fun IsHighTide ((BOUND_VARIABLE_660 BoundSet)) Bool true)
(define-fun IsBriskWind ((BOUND_VARIABLE_660 BoundSet)) Bool true)
(define-fun SendsWater ((BOUND_VARIABLE_667 BoundSet) (BOUND_VARIABLE_668 BoundSet)) Bool true)
(define-fun PoursInto ((BOUND_VARIABLE_660 BoundSet)) Bool false)
)
